numerical/NashLCP.lp
\ Model (null)_copy
\ LP format - for model browsing. Use MPS format to capture full model detail.
Minimize
  x_0 + x_1 + x_2 + x_3 + x_4 + x_5 + x_6 + x_7 + x_8 + x_9 + x_10 + x_11
   + x_12 + x_13 + x_14 + x_15 + x_16 + x_17 + x_18 + x_19 + x_20 + x_21
   + x_22 + x_23 + x_24 + x_25 + x_26 + x_27 + x_28 + x_29 + x_30 + x_31
   + x_32 + x_33 + x_34 + x_35 + x_36 + x_37 + x_38 + x_39 + x_40 + x_41
   + x_42 + x_43 + x_44 + x_45 + x_46 + x_47 + x_48 + x_49 + x_50 + x_51
   + x_52 + x_53 + x_54 + x_55 + x_56 + x_57 + x_58 + x_59 + x_60 + x_61
   + x_62 + x_63 + x_64 + x_65 + x_66 + x_67 + x_68 + x_69 + x_70 + x_71
   + x_72 + x_73 + x_74 + x_75 + x_76 + x_77 + x_78 + x_79 + x_80 + x_81
   + x_82 + x_83 + x_84 + x_85 + x_86 + x_87 + x_88 + x_89 + x_90 + x_91
   + x_92 + x_93 + x_94 + x_95 + x_96 + x_97 + x_98 + x_99 + x_100 + x_101
   + x_102 + x_103 + x_104 + x_105 + x_106 + x_107 + x_108 + x_109 + x_110
   + x_111 + x_112 + x_113 + x_114 + x_115 + x_116 + x_117 + x_118 + x_119
   + x_120 + x_121 + x_122 + x_123 + x_124 + x_125 + x_126 + x_127 + x_128
   + x_129 + z_0 + z_1 + z_2 + z_3 + z_4 + z_5 + z_6 + z_7 + z_8 + z_9
   + z_10 + z_11 + z_12 + z_13 + z_14 + z_15 + z_16 + z_17 + z_18 + z_19
   + z_20 + z_21 + z_22 + z_23 + z_24 + z_25 + z_26 + z_27 + z_28 + z_29
   + z_30 + z_31 + z_32 + z_33 + z_34 + z_35 + z_36 + z_37 + z_38 + z_39
   + z_40 + z_41 + z_42 + z_43 + z_44 + z_45 + z_46 + z_47 + z_48 + z_49
   + z_50 + z_51 + z_52 + z_53 + z_54 + z_55 + z_56 + z_57 + z_58 + z_59
   + z_60 + z_61 + z_62 + z_63 + z_64 + z_65 + z_66 + z_67 + z_68 + z_69
   + z_70 + z_71 + z_72 + z_73 + z_74 + z_75 + z_76 + z_77 + z_78 + z_79
   + z_80 + z_81 + z_82 + z_83 + z_84 + z_85 + z_86 + z_87 + z_88 + z_89
   + z_90 + z_91 + z_92 + z_93 + z_94 + z_95 + z_96 + z_97 + z_98 + z_99
   + z_100 + z_101 + z_102 + z_103 + z_104 + z_105 + z_106 + z_107 + z_108
   + z_109 + z_110 + z_111 + z_112 + z_113 + z_114 + z_115 + z_116 + z_117
   + z_118 + z_119 + z_120 + z_121 + z_122 + z_123 + z_124 + z_125 + z_126
   + z_127 + z_128 + z_129
Subject To
 z_0_def: - x_105 + x_106 - x_124 - 5.1 x_127 + x_128 - x_129 - z_0 = -6
 z_1_def: - x_107 + x_108 - x_124 + x_125 - z_1 = 0
 z_2_def: - x_80 - x_109 + x_110 + x_124 + x_126 - z_2 = 0
 z_3_def: - x_111 + x_112 - z_3 = 0
 z_4_def: - x_113 + x_114 - z_4 = 0
 z_5_def: - x_115 + x_116 - z_5 = 0
 z_6_def: - x_117 + x_118 - x_127 - z_6 = 0
 z_7_def: - x_119 + x_120 + x_127 - z_7 = 0
 z_8_def: 5.1 x_81 - x_82 + x_83 + x_105 - x_106 - z_8 = 0
 z_9_def: x_105 - x_106 - z_9 = 0
 z_10_def: x_105 - x_106 - z_10 = 0
 z_11_def: x_105 - x_106 - z_11 = 0
 z_12_def: x_105 - x_106 - z_12 = 0
 z_13_def: x_105 - x_106 - z_13 = 0
 z_14_def: x_81 + x_105 - x_106 - z_14 = 0
 z_15_def: - x_81 + x_105 - x_106 - z_15 = 0
 z_16_def: 5.1 x_84 - x_85 + x_107 - x_108 - z_16 = 0
 z_17_def: x_107 - x_108 - z_17 = 0
 z_18_def: x_107 - x_108 - z_18 = 0
 z_19_def: x_107 - x_108 - z_19 = 0
 z_20_def: x_107 - x_108 - z_20 = 0
 z_21_def: x_107 - x_108 - z_21 = 0
 z_22_def: x_84 + x_107 - x_108 - z_22 = 0
 z_23_def: - x_84 + x_86 + x_107 - x_108 - z_23 = 0
 z_24_def: 5.1 x_87 + x_89 + x_109 - x_110 - z_24 = 0
 z_25_def: x_88 + x_109 - x_110 - z_25 = 0
 z_26_def: x_109 - x_110 - z_26 = 0
 z_27_def: x_109 - x_110 - z_27 = 0
 z_28_def: x_109 - x_110 - z_28 = 0
 z_29_def: x_109 - x_110 - z_29 = 0
 z_30_def: x_87 + x_109 - x_110 - z_30 = 0
 z_31_def: - x_87 + x_109 - x_110 - z_31 = 0
 z_32_def: 5.1 x_90 + x_111 - x_112 - z_32 = 0
 z_33_def: x_91 + x_111 - x_112 - z_33 = 0
 z_34_def: x_111 - x_112 - z_34 = 0
 z_35_def: x_111 - x_112 - z_35 = 0
 z_36_def: x_111 - x_112 - z_36 = 0
 z_37_def: x_111 - x_112 - z_37 = 0
 z_38_def: x_90 + x_111 - x_112 - z_38 = 0
 z_39_def: - x_90 + x_92 + x_111 - x_112 - z_39 = 0
 z_40_def: x_93 - x_94 + x_95 + x_113 - x_114 - z_40 = 0
 z_41_def: x_113 - x_114 - z_41 = 0
 z_42_def: x_113 - x_114 - z_42 = 0
 z_43_def: x_113 - x_114 - z_43 = 0
 z_44_def: x_113 - x_114 - z_44 = 0
 z_45_def: x_113 - x_114 - z_45 = 0
 z_46_def: x_113 - x_114 - z_46 = 0
 z_47_def: x_113 - x_114 - z_47 = 0
 z_48_def: x_96 - x_97 + x_115 - x_116 - z_48 = 0
 z_49_def: x_115 - x_116 - z_49 = 0
 z_50_def: x_115 - x_116 - z_50 = 0
 z_51_def: x_115 - x_116 - z_51 = 0
 z_52_def: x_115 - x_116 - z_52 = 0
 z_53_def: x_115 - x_116 - z_53 = 0
 z_54_def: x_115 - x_116 - z_54 = 0
 z_55_def: x_98 + x_115 - x_116 - z_55 = 0
 z_56_def: x_99 + x_101 + x_117 - x_118 - z_56 = 0
 z_57_def: x_100 + x_117 - x_118 - z_57 = 0
 z_58_def: x_117 - x_118 - z_58 = 0
 z_59_def: x_117 - x_118 - z_59 = 0
 z_60_def: x_117 - x_118 - z_60 = 0
 z_61_def: x_117 - x_118 - z_61 = 0
 z_62_def: x_117 - x_118 - z_62 = 0
 z_63_def: x_117 - x_118 - z_63 = 0
 z_64_def: x_102 + x_119 - x_120 - z_64 = 0
 z_65_def: x_103 + x_119 - x_120 - z_65 = 0
 z_66_def: x_119 - x_120 - z_66 = 0
 z_67_def: x_119 - x_120 - z_67 = 0
 z_68_def: x_119 - x_120 - z_68 = 0
 z_69_def: x_119 - x_120 - z_69 = 0
 z_70_def: x_119 - x_120 - z_70 = 0
 z_71_def: x_104 + x_119 - x_120 - z_71 = 0
 z_72_def: 290 x_81 - 100 x_82 + x_121 - x_122 - z_72 = 0
 z_73_def: 290 x_84 - 100 x_85 + x_121 - x_122 - z_73 = 0
 z_74_def: 290 x_87 + x_121 - x_122 - z_74 = 0
 z_75_def: 290 x_90 + x_121 - x_122 - z_75 = 0
 z_76_def: - 100 x_94 + x_121 - x_122 - z_76 = 0
 z_77_def: - 100 x_97 + x_121 - x_122 - z_77 = 0
 z_78_def: x_121 - x_122 - z_78 = 0
 z_79_def: x_121 - x_122 - z_79 = 0
 z_80_def: x_2 - z_80 = 0
 z_81_def: - 5.1 x_8 - x_14 + x_15 - 290 x_72 - z_81 = 0
 z_82_def: x_8 + 100 x_72 - z_82 = 0
 z_83_def: - x_8 - z_83 = 0
 z_84_def: - 5.1 x_16 - x_22 + x_23 - 290 x_73 - z_84 = 0
 z_85_def: x_16 + 100 x_73 - z_85 = 0
 z_86_def: - x_23 - z_86 = 0
 z_87_def: - 5.1 x_24 - x_30 + x_31 - 290 x_74 - z_87 = 0
 z_88_def: - x_25 - z_88 = 0
 z_89_def: - x_24 - z_89 = 0
 z_90_def: - 5.1 x_32 - x_38 + x_39 - 290 x_75 - z_90 = 0
 z_91_def: - x_33 - z_91 = 0
 z_92_def: - x_39 - z_92 = 0
 z_93_def: - x_40 - z_93 = 0
 z_94_def: x_40 + 100 x_76 - z_94 = 0
 z_95_def: - x_40 - z_95 = 0
 z_96_def: - x_48 - z_96 = 0
 z_97_def: x_48 + 100 x_77 - z_97 = 0
 z_98_def: - x_55 - z_98 = 0
 z_99_def: - x_56 - z_99 = 0
 z_100_def: - x_57 - z_100 = 0
 z_101_def: - x_56 - z_101 = 0
 z_102_def: - x_64 - z_102 = 0
 z_103_def: - x_65 - z_103 = 0
 z_104_def: - x_71 - z_104 = 0
 z_105_def: x_0 - x_8 - x_9 - x_10 - x_11 - x_12 - x_13 - x_14 - x_15
   - z_105 = 0
 z_106_def: - x_0 + x_8 + x_9 + x_10 + x_11 + x_12 + x_13 + x_14 + x_15
   - z_106 = 0
 z_107_def: x_1 - x_16 - x_17 - x_18 - x_19 - x_20 - x_21 - x_22 - x_23
   - z_107 = 0
 z_108_def: - x_1 + x_16 + x_17 + x_18 + x_19 + x_20 + x_21 + x_22 + x_23
   - z_108 = 0
 z_109_def: x_2 - x_24 - x_25 - x_26 - x_27 - x_28 - x_29 - x_30 - x_31
   - z_109 = 0
 z_110_def: - x_2 + x_24 + x_25 + x_26 + x_27 + x_28 + x_29 + x_30 + x_31
   - z_110 = 0
 z_111_def: x_3 - x_32 - x_33 - x_34 - x_35 - x_36 - x_37 - x_38 - x_39
   - z_111 = 0
 z_112_def: - x_3 + x_32 + x_33 + x_34 + x_35 + x_36 + x_37 + x_38 + x_39
   - z_112 = 0
 z_113_def: x_4 - x_40 - x_41 - x_42 - x_43 - x_44 - x_45 - x_46 - x_47
   - z_113 = 0
 z_114_def: - x_4 + x_40 + x_41 + x_42 + x_43 + x_44 + x_45 + x_46 + x_47
   - z_114 = 0
 z_115_def: x_5 - x_48 - x_49 - x_50 - x_51 - x_52 - x_53 - x_54 - x_55
   - z_115 = 0
 z_116_def: - x_5 + x_48 + x_49 + x_50 + x_51 + x_52 + x_53 + x_54 + x_55
   - z_116 = 0
 z_117_def: x_6 - x_56 - x_57 - x_58 - x_59 - x_60 - x_61 - x_62 - x_63
   - z_117 = 0
 z_118_def: - x_6 + x_56 + x_57 + x_58 + x_59 + x_60 + x_61 + x_62 + x_63
   - z_118 = 0
 z_119_def: x_7 - x_64 - x_65 - x_66 - x_67 - x_68 - x_69 - x_70 - x_71
   - z_119 = 0
 z_120_def: - x_7 + x_64 + x_65 + x_66 + x_67 + x_68 + x_69 + x_70 + x_71
   - z_120 = 0
 z_121_def: - x_72 - x_73 - x_74 - x_75 - x_76 - x_77 - x_78 - x_79 - z_121
   = -1
 z_122_def: x_72 + x_73 + x_74 + x_75 + x_76 + x_77 + x_78 + x_79 - z_122
   = 1
 z_123_def: - z_123 = 0
 z_124_def: x_0 + x_1 - x_2 - z_124 = 0
 z_125_def: - x_1 - z_125 = 0
 z_126_def: - x_2 - z_126 = 0
 z_127_def: 5.1 x_0 + x_6 - x_7 - z_127 = 290
 z_128_def: - x_0 - z_128 = -100
 z_129_def: x_0 - z_129 = 0
 commonCons_0: x_2 <= 0
 commonCons_1: - x_2 <= -0
 z0_L_Mu0: - z_0 + 1e+06 u_0 >= 0
 x0_L_MuDash0: - x_0 - 1e+06 u_0 >= -1e+06
 z1_L_Mu1: - z_1 + 1e+06 u_1 >= 0
 x1_L_MuDash1: - x_1 - 1e+06 u_1 >= -1e+06
 z2_L_Mu2: - z_2 + 1e+06 u_2 >= 0
 x2_L_MuDash2: - x_2 - 1e+06 u_2 >= -1e+06
 z3_L_Mu3: - z_3 + 1e+06 u_3 >= 0
 x3_L_MuDash3: - x_3 - 1e+06 u_3 >= -1e+06
 z4_L_Mu4: - z_4 + 1e+06 u_4 >= 0
 x4_L_MuDash4: - x_4 - 1e+06 u_4 >= -1e+06
 z5_L_Mu5: - z_5 + 1e+06 u_5 >= 0
 x5_L_MuDash5: - x_5 - 1e+06 u_5 >= -1e+06
 z6_L_Mu6: - z_6 + 1e+06 u_6 >= 0
 x6_L_MuDash6: - x_6 - 1e+06 u_6 >= -1e+06
 z7_L_Mu7: - z_7 + 1e+06 u_7 >= 0
 x7_L_MuDash7: - x_7 - 1e+06 u_7 >= -1e+06
 z8_L_Mu8: - z_8 + 1e+06 u_8 >= 0
 x8_L_MuDash8: - x_8 - 1e+06 u_8 >= -1e+06
 z9_L_Mu9: - z_9 + 1e+06 u_9 >= 0
 x9_L_MuDash9: - x_9 - 1e+06 u_9 >= -1e+06
 z10_L_Mu10: - z_10 + 1e+06 u_10 >= 0
 x10_L_MuDash10: - x_10 - 1e+06 u_10 >= -1e+06
 z11_L_Mu11: - z_11 + 1e+06 u_11 >= 0
 x11_L_MuDash11: - x_11 - 1e+06 u_11 >= -1e+06
 z12_L_Mu12: - z_12 + 1e+06 u_12 >= 0
 x12_L_MuDash12: - x_12 - 1e+06 u_12 >= -1e+06
 z13_L_Mu13: - z_13 + 1e+06 u_13 >= 0
 x13_L_MuDash13: - x_13 - 1e+06 u_13 >= -1e+06
 z14_L_Mu14: - z_14 + 1e+06 u_14 >= 0
 x14_L_MuDash14: - x_14 - 1e+06 u_14 >= -1e+06
 z15_L_Mu15: - z_15 + 1e+06 u_15 >= 0
 x15_L_MuDash15: - x_15 - 1e+06 u_15 >= -1e+06
 z16_L_Mu16: - z_16 + 1e+06 u_16 >= 0
 x16_L_MuDash16: - x_16 - 1e+06 u_16 >= -1e+06
 z17_L_Mu17: - z_17 + 1e+06 u_17 >= 0
 x17_L_MuDash17: - x_17 - 1e+06 u_17 >= -1e+06
 z18_L_Mu18: - z_18 + 1e+06 u_18 >= 0
 x18_L_MuDash18: - x_18 - 1e+06 u_18 >= -1e+06
 z19_L_Mu19: - z_19 + 1e+06 u_19 >= 0
 x19_L_MuDash19: - x_19 - 1e+06 u_19 >= -1e+06
 z20_L_Mu20: - z_20 + 1e+06 u_20 >= 0
 x20_L_MuDash20: - x_20 - 1e+06 u_20 >= -1e+06
 z21_L_Mu21: - z_21 + 1e+06 u_21 >= 0
 x21_L_MuDash21: - x_21 - 1e+06 u_21 >= -1e+06
 z22_L_Mu22: - z_22 + 1e+06 u_22 >= 0
 x22_L_MuDash22: - x_22 - 1e+06 u_22 >= -1e+06
 z23_L_Mu23: - z_23 + 1e+06 u_23 >= 0
 x23_L_MuDash23: - x_23 - 1e+06 u_23 >= -1e+06
 z24_L_Mu24: - z_24 + 1e+06 u_24 >= 0
 x24_L_MuDash24: - x_24 - 1e+06 u_24 >= -1e+06
 z25_L_Mu25: - z_25 + 1e+06 u_25 >= 0
 x25_L_MuDash25: - x_25 - 1e+06 u_25 >= -1e+06
 z26_L_Mu26: - z_26 + 1e+06 u_26 >= 0
 x26_L_MuDash26: - x_26 - 1e+06 u_26 >= -1e+06
 z27_L_Mu27: - z_27 + 1e+06 u_27 >= 0
 x27_L_MuDash27: - x_27 - 1e+06 u_27 >= -1e+06
 z28_L_Mu28: - z_28 + 1e+06 u_28 >= 0
 x28_L_MuDash28: - x_28 - 1e+06 u_28 >= -1e+06
 z29_L_Mu29: - z_29 + 1e+06 u_29 >= 0
 x29_L_MuDash29: - x_29 - 1e+06 u_29 >= -1e+06
 z30_L_Mu30: - z_30 + 1e+06 u_30 >= 0
 x30_L_MuDash30: - x_30 - 1e+06 u_30 >= -1e+06
 z31_L_Mu31: - z_31 + 1e+06 u_31 >= 0
 x31_L_MuDash31: - x_31 - 1e+06 u_31 >= -1e+06
 z32_L_Mu32: - z_32 + 1e+06 u_32 >= 0
 x32_L_MuDash32: - x_32 - 1e+06 u_32 >= -1e+06
 z33_L_Mu33: - z_33 + 1e+06 u_33 >= 0
 x33_L_MuDash33: - x_33 - 1e+06 u_33 >= -1e+06
 z34_L_Mu34: - z_34 + 1e+06 u_34 >= 0
 x34_L_MuDash34: - x_34 - 1e+06 u_34 >= -1e+06
 z35_L_Mu35: - z_35 + 1e+06 u_35 >= 0
 x35_L_MuDash35: - x_35 - 1e+06 u_35 >= -1e+06
 z36_L_Mu36: - z_36 + 1e+06 u_36 >= 0
 x36_L_MuDash36: - x_36 - 1e+06 u_36 >= -1e+06
 z37_L_Mu37: - z_37 + 1e+06 u_37 >= 0
 x37_L_MuDash37: - x_37 - 1e+06 u_37 >= -1e+06
 z38_L_Mu38: - z_38 + 1e+06 u_38 >= 0
 x38_L_MuDash38: - x_38 - 1e+06 u_38 >= -1e+06
 z39_L_Mu39: - z_39 + 1e+06 u_39 >= 0
 x39_L_MuDash39: - x_39 - 1e+06 u_39 >= -1e+06
 z40_L_Mu40: - z_40 + 1e+06 u_40 >= 0
 x40_L_MuDash40: - x_40 - 1e+06 u_40 >= -1e+06
 z41_L_Mu41: - z_41 + 1e+06 u_41 >= 0
 x41_L_MuDash41: - x_41 - 1e+06 u_41 >= -1e+06
 z42_L_Mu42: - z_42 + 1e+06 u_42 >= 0
 x42_L_MuDash42: - x_42 - 1e+06 u_42 >= -1e+06
 z43_L_Mu43: - z_43 + 1e+06 u_43 >= 0
 x43_L_MuDash43: - x_43 - 1e+06 u_43 >= -1e+06
 z44_L_Mu44: - z_44 + 1e+06 u_44 >= 0
 x44_L_MuDash44: - x_44 - 1e+06 u_44 >= -1e+06
 z45_L_Mu45: - z_45 + 1e+06 u_45 >= 0
 x45_L_MuDash45: - x_45 - 1e+06 u_45 >= -1e+06
 z46_L_Mu46: - z_46 + 1e+06 u_46 >= 0
 x46_L_MuDash46: - x_46 - 1e+06 u_46 >= -1e+06
 z47_L_Mu47: - z_47 + 1e+06 u_47 >= 0
 x47_L_MuDash47: - x_47 - 1e+06 u_47 >= -1e+06
 z48_L_Mu48: - z_48 + 1e+06 u_48 >= 0
 x48_L_MuDash48: - x_48 - 1e+06 u_48 >= -1e+06
 z49_L_Mu49: - z_49 + 1e+06 u_49 >= 0
 x49_L_MuDash49: - x_49 - 1e+06 u_49 >= -1e+06
 z50_L_Mu50: - z_50 + 1e+06 u_50 >= 0
 x50_L_MuDash50: - x_50 - 1e+06 u_50 >= -1e+06
 z51_L_Mu51: - z_51 + 1e+06 u_51 >= 0
 x51_L_MuDash51: - x_51 - 1e+06 u_51 >= -1e+06
 z52_L_Mu52: - z_52 + 1e+06 u_52 >= 0
 x52_L_MuDash52: - x_52 - 1e+06 u_52 >= -1e+06
 z53_L_Mu53: - z_53 + 1e+06 u_53 >= 0
 x53_L_MuDash53: - x_53 - 1e+06 u_53 >= -1e+06
 z54_L_Mu54: - z_54 + 1e+06 u_54 >= 0
 x54_L_MuDash54: - x_54 - 1e+06 u_54 >= -1e+06
 z55_L_Mu55: - z_55 + 1e+06 u_55 >= 0
 x55_L_MuDash55: - x_55 - 1e+06 u_55 >= -1e+06
 z56_L_Mu56: - z_56 + 1e+06 u_56 >= 0
 x56_L_MuDash56: - x_56 - 1e+06 u_56 >= -1e+06
 z57_L_Mu57: - z_57 + 1e+06 u_57 >= 0
 x57_L_MuDash57: - x_57 - 1e+06 u_57 >= -1e+06
 z58_L_Mu58: - z_58 + 1e+06 u_58 >= 0
 x58_L_MuDash58: - x_58 - 1e+06 u_58 >= -1e+06
 z59_L_Mu59: - z_59 + 1e+06 u_59 >= 0
 x59_L_MuDash59: - x_59 - 1e+06 u_59 >= -1e+06
 z60_L_Mu60: - z_60 + 1e+06 u_60 >= 0
 x60_L_MuDash60: - x_60 - 1e+06 u_60 >= -1e+06
 z61_L_Mu61: - z_61 + 1e+06 u_61 >= 0
 x61_L_MuDash61: - x_61 - 1e+06 u_61 >= -1e+06
 z62_L_Mu62: - z_62 + 1e+06 u_62 >= 0
 x62_L_MuDash62: - x_62 - 1e+06 u_62 >= -1e+06
 z63_L_Mu63: - z_63 + 1e+06 u_63 >= 0
 x63_L_MuDash63: - x_63 - 1e+06 u_63 >= -1e+06
 z64_L_Mu64: - z_64 + 1e+06 u_64 >= 0
 x64_L_MuDash64: - x_64 - 1e+06 u_64 >= -1e+06
 z65_L_Mu65: - z_65 + 1e+06 u_65 >= 0
 x65_L_MuDash65: - x_65 - 1e+06 u_65 >= -1e+06
 z66_L_Mu66: - z_66 + 1e+06 u_66 >= 0
 x66_L_MuDash66: - x_66 - 1e+06 u_66 >= -1e+06
 z67_L_Mu67: - z_67 + 1e+06 u_67 >= 0
 x67_L_MuDash67: - x_67 - 1e+06 u_67 >= -1e+06
 z68_L_Mu68: - z_68 + 1e+06 u_68 >= 0
 x68_L_MuDash68: - x_68 - 1e+06 u_68 >= -1e+06
 z69_L_Mu69: - z_69 + 1e+06 u_69 >= 0
 x69_L_MuDash69: - x_69 - 1e+06 u_69 >= -1e+06
 z70_L_Mu70: - z_70 + 1e+06 u_70 >= 0
 x70_L_MuDash70: - x_70 - 1e+06 u_70 >= -1e+06
 z71_L_Mu71: - z_71 + 1e+06 u_71 >= 0
 x71_L_MuDash71: - x_71 - 1e+06 u_71 >= -1e+06
 z72_L_Mu72: - z_72 + 1e+06 u_72 >= 0
 x72_L_MuDash72: - x_72 - 1e+06 u_72 >= -1e+06
 z73_L_Mu73: - z_73 + 1e+06 u_73 >= 0
 x73_L_MuDash73: - x_73 - 1e+06 u_73 >= -1e+06
 z74_L_Mu74: - z_74 + 1e+06 u_74 >= 0
 x74_L_MuDash74: - x_74 - 1e+06 u_74 >= -1e+06
 z75_L_Mu75: - z_75 + 1e+06 u_75 >= 0
 x75_L_MuDash75: - x_75 - 1e+06 u_75 >= -1e+06
 z76_L_Mu76: - z_76 + 1e+06 u_76 >= 0
 x76_L_MuDash76: - x_76 - 1e+06 u_76 >= -1e+06
 z77_L_Mu77: - z_77 + 1e+06 u_77 >= 0
 x77_L_MuDash77: - x_77 - 1e+06 u_77 >= -1e+06
 z78_L_Mu78: - z_78 + 1e+06 u_78 >= 0
 x78_L_MuDash78: - x_78 - 1e+06 u_78 >= -1e+06
 z79_L_Mu79: - z_79 + 1e+06 u_79 >= 0
 x79_L_MuDash79: - x_79 - 1e+06 u_79 >= -1e+06
 z81_L_Mu81: - z_81 + 1e+06 u_81 >= 0
 x81_L_MuDash81: - x_81 - 1e+06 u_81 >= -1e+06
 z82_L_Mu82: - z_82 + 1e+06 u_82 >= 0
 x82_L_MuDash82: - x_82 - 1e+06 u_82 >= -1e+06
 z83_L_Mu83: - z_83 + 1e+06 u_83 >= 0
 x83_L_MuDash83: - x_83 - 1e+06 u_83 >= -1e+06
 z84_L_Mu84: - z_84 + 1e+06 u_84 >= 0
 x84_L_MuDash84: - x_84 - 1e+06 u_84 >= -1e+06
 z85_L_Mu85: - z_85 + 1e+06 u_85 >= 0
 x85_L_MuDash85: - x_85 - 1e+06 u_85 >= -1e+06
 z86_L_Mu86: - z_86 + 1e+06 u_86 >= 0
 x86_L_MuDash86: - x_86 - 1e+06 u_86 >= -1e+06
 z87_L_Mu87: - z_87 + 1e+06 u_87 >= 0
 x87_L_MuDash87: - x_87 - 1e+06 u_87 >= -1e+06
 z88_L_Mu88: - z_88 + 1e+06 u_88 >= 0
 x88_L_MuDash88: - x_88 - 1e+06 u_88 >= -1e+06
 z89_L_Mu89: - z_89 + 1e+06 u_89 >= 0
 x89_L_MuDash89: - x_89 - 1e+06 u_89 >= -1e+06
 z90_L_Mu90: - z_90 + 1e+06 u_90 >= 0
 x90_L_MuDash90: - x_90 - 1e+06 u_90 >= -1e+06
 z91_L_Mu91: - z_91 + 1e+06 u_91 >= 0
 x91_L_MuDash91: - x_91 - 1e+06 u_91 >= -1e+06
 z92_L_Mu92: - z_92 + 1e+06 u_92 >= 0
 x92_L_MuDash92: - x_92 - 1e+06 u_92 >= -1e+06
 z93_L_Mu93: - z_93 + 1e+06 u_93 >= 0
 x93_L_MuDash93: - x_93 - 1e+06 u_93 >= -1e+06
 z94_L_Mu94: - z_94 + 1e+06 u_94 >= 0
 x94_L_MuDash94: - x_94 - 1e+06 u_94 >= -1e+06
 z95_L_Mu95: - z_95 + 1e+06 u_95 >= 0
 x95_L_MuDash95: - x_95 - 1e+06 u_95 >= -1e+06
 z96_L_Mu96: - z_96 + 1e+06 u_96 >= 0
 x96_L_MuDash96: - x_96 - 1e+06 u_96 >= -1e+06
 z97_L_Mu97: - z_97 + 1e+06 u_97 >= 0
 x97_L_MuDash97: - x_97 - 1e+06 u_97 >= -1e+06
 z98_L_Mu98: - z_98 + 1e+06 u_98 >= 0
 x98_L_MuDash98: - x_98 - 1e+06 u_98 >= -1e+06
 z99_L_Mu99: - z_99 + 1e+06 u_99 >= 0
 x99_L_MuDash99: - x_99 - 1e+06 u_99 >= -1e+06
 z100_L_Mu100: - z_100 + 1e+06 u_100 >= 0
 x100_L_MuDash100: - x_100 - 1e+06 u_100 >= -1e+06
 z101_L_Mu101: - z_101 + 1e+06 u_101 >= 0
 x101_L_MuDash101: - x_101 - 1e+06 u_101 >= -1e+06
 z102_L_Mu102: - z_102 + 1e+06 u_102 >= 0
 x102_L_MuDash102: - x_102 - 1e+06 u_102 >= -1e+06
 z103_L_Mu103: - z_103 + 1e+06 u_103 >= 0
 x103_L_MuDash103: - x_103 - 1e+06 u_103 >= -1e+06
 z104_L_Mu104: - z_104 + 1e+06 u_104 >= 0
 x104_L_MuDash104: - x_104 - 1e+06 u_104 >= -1e+06
 z105_L_Mu105: - z_105 + 1e+06 u_105 >= 0
 x105_L_MuDash105: - x_105 - 1e+06 u_105 >= -1e+06
 z106_L_Mu106: - z_106 + 1e+06 u_106 >= 0
 x106_L_MuDash106: - x_106 - 1e+06 u_106 >= -1e+06
 z107_L_Mu107: - z_107 + 1e+06 u_107 >= 0
 x107_L_MuDash107: - x_107 - 1e+06 u_107 >= -1e+06
 z108_L_Mu108: - z_108 + 1e+06 u_108 >= 0
 x108_L_MuDash108: - x_108 - 1e+06 u_108 >= -1e+06
 z109_L_Mu109: - z_109 + 1e+06 u_109 >= 0
 x109_L_MuDash109: - x_109 - 1e+06 u_109 >= -1e+06
 z110_L_Mu110: - z_110 + 1e+06 u_110 >= 0
 x110_L_MuDash110: - x_110 - 1e+06 u_110 >= -1e+06
 z111_L_Mu111: - z_111 + 1e+06 u_111 >= 0
 x111_L_MuDash111: - x_111 - 1e+06 u_111 >= -1e+06
 z112_L_Mu112: - z_112 + 1e+06 u_112 >= 0
 x112_L_MuDash112: - x_112 - 1e+06 u_112 >= -1e+06
 z113_L_Mu113: - z_113 + 1e+06 u_113 >= 0
 x113_L_MuDash113: - x_113 - 1e+06 u_113 >= -1e+06
 z114_L_Mu114: - z_114 + 1e+06 u_114 >= 0
 x114_L_MuDash114: - x_114 - 1e+06 u_114 >= -1e+06
 z115_L_Mu115: - z_115 + 1e+06 u_115 >= 0
 x115_L_MuDash115: - x_115 - 1e+06 u_115 >= -1e+06
 z116_L_Mu116: - z_116 + 1e+06 u_116 >= 0
 x116_L_MuDash116: - x_116 - 1e+06 u_116 >= -1e+06
 z117_L_Mu117: - z_117 + 1e+06 u_117 >= 0
 x117_L_MuDash117: - x_117 - 1e+06 u_117 >= -1e+06
 z118_L_Mu118: - z_118 + 1e+06 u_118 >= 0
 x118_L_MuDash118: - x_118 - 1e+06 u_118 >= -1e+06
 z119_L_Mu119: - z_119 + 1e+06 u_119 >= 0
 x119_L_MuDash119: - x_119 - 1e+06 u_119 >= -1e+06
 z120_L_Mu120: - z_120 + 1e+06 u_120 >= 0
 x120_L_MuDash120: - x_120 - 1e+06 u_120 >= -1e+06
 z121_L_Mu121: - z_121 + 1e+06 u_121 >= 0
 x121_L_MuDash121: - x_121 - 1e+06 u_121 >= -1e+06
 z122_L_Mu122: - z_122 + 1e+06 u_122 >= 0
 x122_L_MuDash122: - x_122 - 1e+06 u_122 >= -1e+06
 z123_L_Mu123: - z_123 + 1e+06 u_123 >= 0
 x123_L_MuDash123: - x_123 - 1e+06 u_123 >= -1e+06
 z124_L_Mu124: - z_124 + 1e+06 u_124 >= 0
 x124_L_MuDash124: - x_124 - 1e+06 u_124 >= -1e+06
 z125_L_Mu125: - z_125 + 1e+06 u_125 >= 0
 x125_L_MuDash125: - x_125 - 1e+06 u_125 >= -1e+06
 z126_L_Mu126: - z_126 + 1e+06 u_126 >= 0
 x126_L_MuDash126: - x_126 - 1e+06 u_126 >= -1e+06
 z127_L_Mu127: - z_127 + 1e+06 u_127 >= 0
 x127_L_MuDash127: - x_127 - 1e+06 u_127 >= -1e+06
 z128_L_Mu128: - z_128 + 1e+06 u_128 >= 0
 x128_L_MuDash128: - x_128 - 1e+06 u_128 >= -1e+06
 z129_L_Mu129: - z_129 + 1e+06 u_129 >= 0
 x129_L_MuDash129: - x_129 - 1e+06 u_129 >= -1e+06
 z80_L_Mu80: - z_80 + 1e+06 u_80 >= 0
 x80_L_MuDash80: - x_80 - 1e+06 u_80 >= -1e+06
Bounds
Binaries
 u_0 u_1 u_2 u_3 u_4 u_5 u_6 u_7 u_8 u_9 u_10 u_11 u_12 u_13 u_14 u_15 u_16
 u_17 u_18 u_19 u_20 u_21 u_22 u_23 u_24 u_25 u_26 u_27 u_28 u_29 u_30 u_31
 u_32 u_33 u_34 u_35 u_36 u_37 u_38 u_39 u_40 u_41 u_42 u_43 u_44 u_45 u_46
 u_47 u_48 u_49 u_50 u_51 u_52 u_53 u_54 u_55 u_56 u_57 u_58 u_59 u_60 u_61
 u_62 u_63 u_64 u_65 u_66 u_67 u_68 u_69 u_70 u_71 u_72 u_73 u_74 u_75 u_76
 u_77 u_78 u_79 u_80 u_81 u_82 u_83 u_84 u_85 u_86 u_87 u_88 u_89 u_90 u_91
 u_92 u_93 u_94 u_95 u_96 u_97 u_98 u_99 u_100 u_101 u_102 u_103 u_104
 u_105 u_106 u_107 u_108 u_109 u_110 u_111 u_112 u_113 u_114 u_115 u_116
 u_117 u_118 u_119 u_120 u_121 u_122 u_123 u_124 u_125 u_126 u_127 u_128
 u_129
End
