numerical/NashLCP.sol
# Solution for model (null)_copy
# Objective value = 4.7558823529411768e+02
x_0 5.6862745098039220e+01
x_1 0
x_2 0
x_3 0
x_4 0
x_5 0
x_6 0
x_7 0
x_8 0
x_9 5.6862745098039220e+01
x_10 0
x_11 0
x_12 0
x_13 0
x_14 0
x_15 0
x_16 0
x_17 0
x_18 0
x_19 0
x_20 0
x_21 0
x_22 0
x_23 0
x_24 0
x_25 0
x_26 0
x_27 0
x_28 0
x_29 0
x_30 0
x_31 0
x_32 0
x_33 0
x_34 0
x_35 0
x_36 0
x_37 0
x_38 0
x_39 0
x_40 0
x_41 0
x_42 0
x_43 0
x_44 0
x_45 0
x_46 0
x_47 0
x_48 0
x_49 0
x_50 0
x_51 0
x_52 0
x_53 0
x_54 0
x_55 0
x_56 0
x_57 0
x_58 0
x_59 0
x_60 0
x_61 0
x_62 0
x_63 0
x_64 0
x_65 0
x_66 0
x_67 0
x_68 0
x_69 0
x_70 0
x_71 0
x_72 0
x_73 0
x_74 0
x_75 0
x_76 0
x_77 0
x_78 1
x_79 0
x_80 0
x_81 0
x_82 0
x_83 0
x_84 0
x_85 0
x_86 0
x_87 0
x_88 0
x_89 0
x_90 0
x_91 0
x_92 0
x_93 0
x_94 0
x_95 0
x_96 0
x_97 0
x_98 0
x_99 0
x_100 0
x_101 0
x_102 0
x_103 0
x_104 0
x_105 6
x_106 0
x_107 0
x_108 0
x_109 0
x_110 0
x_111 0
x_112 0
x_113 0
x_114 0
x_115 0
x_116 0
x_117 0
x_118 0
x_119 0
x_120 0
x_121 0
x_122 0
x_123 0
x_124 0
x_125 0
x_126 0
x_127 0
x_128 0
x_129 0
z_0 0
z_1 0
z_2 0
z_3 0
z_4 0
z_5 0
z_6 0
z_7 0
z_8 6
z_9 6
z_10 6
z_11 6
z_12 6
z_13 6
z_14 6
z_15 6
z_16 0
z_17 0
z_18 0
z_19 0
z_20 0
z_21 0
z_22 0
z_23 0
z_24 0
z_25 0
z_26 0
z_27 0
z_28 0
z_29 0
z_30 0
z_31 0
z_32 0
z_33 0
z_34 0
z_35 0
z_36 0
z_37 0
z_38 0
z_39 0
z_40 0
z_41 0
z_42 0
z_43 0
z_44 0
z_45 0
z_46 0
z_47 0
z_48 0
z_49 0
z_50 0
z_51 0
z_52 0
z_53 0
z_54 0
z_55 0
z_56 0
z_57 0
z_58 0
z_59 0
z_60 0
z_61 0
z_62 0
z_63 0
z_64 0
z_65 0
z_66 0
z_67 0
z_68 0
z_69 0
z_70 0
z_71 0
z_72 0
z_73 0
z_74 0
z_75 0
z_76 0
z_77 0
z_78 0
z_79 0
z_80 0
z_81 0
z_82 0
z_83 0
z_84 0
z_85 0
z_86 0
z_87 0
z_88 0
z_89 0
z_90 0
z_91 0
z_92 0
z_93 0
z_94 0
z_95 0
z_96 0
z_97 0
z_98 0
z_99 0
z_100 0
z_101 0
z_102 0
z_103 0
z_104 0
z_105 0
z_106 0
z_107 0
z_108 0
z_109 0
z_110 0
z_111 0
z_112 0
z_113 0
z_114 0
z_115 0
z_116 0
z_117 0
z_118 0
z_119 0
z_120 0
z_121 0
z_122 0
z_123 150
z_124 5.6862745098039220e+01
z_125 0
z_126 0
z_127 0
z_128 4.3137254901960780e+01
z_129 5.6862745098039220e+01
u_0 0
u_1 1
u_2 1
u_3 0
u_4 0
u_5 0
u_6 0
u_7 0
u_8 1
u_9 5.9999999950000002e-07
u_10 5.9999999950000002e-07
u_11 5.9999999950000002e-07
u_12 5.9999999950000002e-07
u_13 5.9999999950000002e-07
u_14 5.9999999950000002e-07
u_15 5.9999999950000002e-07
u_16 1
u_17 1
u_18 1
u_19 1
u_20 1
u_21 1
u_22 1
u_23 1
u_24 1
u_25 1
u_26 1
u_27 1
u_28 1
u_29 1
u_30 1
u_31 1
u_32 1
u_33 1
u_34 1
u_35 1
u_36 1
u_37 1
u_38 1
u_39 1
u_40 1
u_41 0
u_42 0
u_43 0
u_44 0
u_45 0
u_46 0
u_47 0
u_48 1
u_49 1
u_50 1
u_51 1
u_52 1
u_53 1
u_54 1
u_55 1
u_56 1
u_57 1
u_58 0
u_59 0
u_60 0
u_61 0
u_62 0
u_63 0
u_64 1
u_65 1
u_66 0
u_67 0
u_68 0
u_69 0
u_70 0
u_71 1
u_72 0
u_73 1
u_74 1
u_75 1
u_76 0
u_77 0
u_78 0
u_79 0
u_80 0
u_81 0
u_82 0
u_83 0
u_84 0
u_85 0
u_86 0
u_87 0
u_88 0
u_89 0
u_90 0
u_91 0
u_92 0
u_93 0
u_94 0
u_95 0
u_96 0
u_97 0
u_98 0
u_99 0
u_100 0
u_101 0
u_102 0
u_103 0
u_104 0
u_105 0
u_106 1
u_107 0
u_108 0
u_109 0
u_110 0
u_111 0
u_112 1
u_113 1
u_114 1
u_115 0
u_116 1
u_117 0
u_118 1
u_119 0
u_120 1
u_121 0
u_122 1
u_123 1
u_124 1
u_125 0
u_126 0
u_127 1
u_128 1
u_129 1
